# Cost: 230

# Tail Head Net
14 13 1
34 14 1
54 34 1
55 54 1
75 55 1
95 75 1
115 95 1
135 115 1
276 676 1
277 276 1
278 277 1
279 278 1
280 279 1
376 396 1
391 390 1
392 391 1
393 392 1
394 393 1
395 394 1
396 395 1
396 397 1
535 135 1
555 535 1
575 555 1
576 575 1
596 576 1
616 596 1
636 616 1
656 636 1
676 656 1
676 696 1
696 716 1
716 736 1
736 756 1
756 776 1
776 376 1
16 17 2
17 18 2
17 37 2
37 57 2
57 77 2
77 97 2
97 117 2
117 137 2
137 157 2
142 141 2
143 142 2
144 143 2
145 144 2
146 145 2
147 146 2
148 147 2
149 148 2
150 149 2
151 150 2
152 151 2
153 152 2
154 153 2
155 154 2
156 155 2
157 156 2
157 557 2
219 220 2
557 577 2
577 578 2
578 598 2
598 618 2
618 619 2
619 219 2
99 100 3
100 80 3
119 99 3
138 139 3
139 119 3
158 138 3
178 158 3
198 178 3
201 202 3
202 203 3
203 204 3
204 205 3
205 206 3
206 207 3
207 208 3
208 209 3
209 210 3
210 211 3
211 212 3
212 213 3
213 214 3
214 215 3
215 216 3
216 217 3
217 218 3
218 198 3
221 201 3
241 221 3
261 241 3
281 261 3
301 281 3
321 301 3
341 321 3
385 384 4
9 29 5
29 49 5
49 69 5
69 469 5
369 389 5
469 489 5
489 509 5
509 510 5
509 529 5
510 511 5
511 512 5
512 513 5
513 514 5
514 515 5
515 516 5
516 517 5
517 518 5
518 519 5
519 520 5
520 120 5
529 549 5
549 569 5
569 589 5
589 609 5
609 629 5
629 649 5
649 669 5
669 689 5
689 709 5
709 729 5
729 749 5
749 769 5
769 369 5
3 23 6
23 43 6
43 44 6
44 64 6
64 464 6
464 484 6
484 504 6
504 524 6
524 544 6
544 545 6
545 546 6
546 547 6
547 567 6
567 587 6
587 588 6
588 608 6
608 628 6
628 648 6
648 668 6
668 688 6
688 708 6
708 728 6
728 748 6
748 768 6
768 788 6
788 388 6
788 789 6
789 790 6
790 791 6
791 792 6
792 793 6
793 794 6
794 795 6
795 796 6
796 797 6
797 798 6
798 398 6
39 439 7
40 39 7
402 2 7
403 402 7
404 403 7
405 404 7
406 405 7
407 406 7
408 407 7
409 408 7
410 409 7
411 410 7
412 411 7
432 412 7
433 432 7
434 433 7
435 434 7
436 435 7
437 436 7
438 437 7
439 438 7
12 32 8
31 51 8
32 31 8
51 71 8
71 91 8
82 102 8
83 82 8
84 83 8
85 84 8
86 85 8
87 86 8
88 87 8
89 88 8
90 89 8
91 90 8
101 121 8
102 101 8
320 300 9
338 339 9
339 340 9
340 320 9
348 349 9
349 350 9
350 351 9
351 352 9
352 353 9
353 354 9
354 355 9
355 356 9
356 357 9
357 358 9
358 338 9
366 367 9
367 368 9
368 348 9
386 366 9
